set Emberek:= Alma Bela Cili Dani Enci Feri;
set Szamok:= 1 2 3 4 5 6 7 8 9 10;

param sorAr := 600;

param M:= 356;

param szeret:
        1       2       3       4       5       6       7       8       9       10 :=
Alma    1       0       1       1       1       0       0       0       0       1
Bela    1       1       0       0       1       1       0       1       1       0
Cili    0       0       0       1       0       0       1       1       0       0
Dani    1       1       0       1       1       1       1       1       1       1
Enci    0       0       0       1       0       0       0       0       0       0
Feri    0       0       0       1       1       1       1       1       0       1
;    
